NAME : XML100_3265_21
DIMENSION : 101
NB_CLUSTERS : 4
CLUSTERING_ALG : KMedoids
CLUSTERING_PARAMS : k(3)
CLUSTERS
1 0
2 1 3 5 10 18 21 22 26 27 29 41 45 46 47 56 57 65 69 73 74 83 84 86 95 99
3 6 8 9 11 14 15 16 17 19 20 23 28 31 32 33 39 48 49 50 52 60 64 66 70 71 76 77 81 91 96 97 100
4 2 4 7 12 13 24 25 30 34 35 36 37 38 40 42 43 44 51 53 54 55 58 59 61 62 63 67 68 72 75 78 79 80 82 85 87 88 89 90 92 93 94 98
EOF